K-Spacing Value to Generate K-Mesh: 0.030
0
Gamma Monkhorst-Pack
   3   3   1
0.0  0.0  0.0
