ZnIn2S4                                 
   1.00000000000000     
     6.7000000000000000    0.0000000000000000    0.0000000000000000
     0.0000000000000000    3.8700000000000000    0.0000000000000000
    -0.2161382456000000    0.0000000000000000   24.6537519070000002
   Zn   In   S 
     2     4     8
Direct
  0.3771037850387169  0.0369296733806938  0.6541367029457531
  0.0197131461712255  0.9825605008588907  0.3580510382526951
  0.6839543807614161  0.9697877976656816  0.5058226058227510
  0.8738541759969273  0.4930397366847162  0.6663147310992740
  0.1910680357906838  0.5093734225165492  0.5044027480326262
  0.5020141724966561  0.5107381800869027  0.3388930320924299
  0.7085411226941182  0.9690177989330816  0.3075083522708632
  0.1568532816546365  0.5110542990024047  0.3199871345590632
  0.8618001559533455  0.4690924361200371  0.5626009095692641
  0.0107817050664248  0.0402738251674005  0.4534628891177723
  0.3464924464447479  0.9933227814647777  0.5589523530996554
  0.5355503278432751  0.4626148464091007  0.4473632820602245
  0.2171291403107234  0.5554493876894888  0.6933726533077806
  0.6702015412681559  0.0205201563504845  0.6975622743785566
 
 
